id: 1133
name: neos-1140050
group: miplib2010
method: 1

Gurobi 7.0.2 (linux64, Matlab) logging started Fri Apr 20 03:03:12 2018


Gurobi 7.0.2 (linux64) logging started Fri Apr 20 03:03:12 2018

Optimize a model with 3795 rows, 40755 columns and 808515 nonzeros
Coefficient statistics:
  Matrix range     [6e-07, 3e+04]
  Objective range  [1e+01, 3e+04]
  Bounds range     [1e+00, 3e+04]
  RHS range        [1e+00, 3e+04]
Presolve removed 0 rows and 1680 columns
Presolve time: 0.09s
Presolved: 3795 rows, 39075 columns, 806835 nonzeros

Iteration    Objective       Primal Inf.    Dual Inf.      Time
       0    0.0000000e+00   2.296270e+09   0.000000e+00      0s
Warning: 1 variables dropped from basis
Warning: switch to quad precision
    6672    4.9654523e+06   1.069067e+08   0.000000e+00      5s
    9834    5.0702043e+06   7.695417e+07   0.000000e+00     10s
   12129    5.0715905e+06   3.374110e+04   0.000000e+00     15s
   12703    5.0715937e+06   0.000000e+00   0.000000e+00     16s

Solved in 12703 iterations and 16.39 seconds
Optimal objective  5.071593662e+06
status: OPTIMAL
